(set-logic HORN)
(declare-fun state (Int Int Int (Array Int Int) Int (Array Int Int) Int Int Bool Bool Int Int Int Int Int) Bool)
(assert (forall ((|A_2| Int) (|B_2| Int) (|C_1| Int) (|D_1| (Array Int Int)) (|E_1| Int) (|F_1| (Array Int Int)) (|G_1| Int) (|.y.5| Int) (|.loc.6| Bool) (|.loc.7| Bool) (|L_2| Int) (|O_0| Int) (|J_2| Int) (|J_3| Int) (|L_3| Int) (|.loc.10| Bool) (|.x.9| (Array Int Int)) (|.x.7| (Array Int Int)) (|.x.8| Int) (|.loc.11| Bool) (|L_1| Int) (|.x.10| Int) (|.x.6| Int) (|.y.8| Int) (|.y.9| Int) (|.xtv.1| Int) (|.xtv.2| Int) (|.xtv.3| Int) (|.xpv.1| Int) (|.xpv.2| Int)) (=> (and (not .loc.6) (not .loc.7)) (state |A_2| |B_2| |C_1| |D_1| |E_1| |F_1| |G_1| |.y.5| |.loc.6| |.loc.7| |L_2| |O_0| |J_2| |J_3| |L_3|))))
(assert (forall ((|A_2| Int) (|B_2| Int) (|C_1| Int) (|D_1| (Array Int Int)) (|E_1| Int) (|F_1| (Array Int Int)) (|G_1| Int) (|.y.5| Int) (|.loc.6| Bool) (|.loc.7| Bool) (|L_2| Int) (|O_0| Int) (|J_2| Int) (|J_3| Int) (|L_3| Int) (|.loc.10| Bool) (|.x.9| (Array Int Int)) (|.x.7| (Array Int Int)) (|.x.8| Int) (|.loc.11| Bool) (|L_1| Int) (|.x.10| Int) (|.x.6| Int) (|.y.8| Int) (|.y.9| Int) (|.xtv.1| Int) (|.xtv.2| Int) (|.xtv.3| Int) (|.xpv.1| Int) (|.xpv.2| Int)) (=> (and (state |A_2| |B_2| |C_1| |D_1| |E_1| |F_1| |G_1| |.y.5| |.loc.6| |.loc.7| |L_2| |O_0| |J_2| |J_3| |L_3|) (let ((.def_25 (not .loc.6))) (let ((.def_26 (not .loc.7))) (let ((.def_35 (= E_1 .x.8))) (let ((.def_48 (<= G_1 C_1))) (let ((.def_57 (<= E_1 0))) (let ((.def_59 (<= A_2 0))) (let ((.def_61 (not (<= J_2 0)))) (let ((.def_86 (not .def_57))) (let ((.def_93 (= A_2 .x.6))) (let ((.def_110 (not .loc.11))) (let ((.def_119 (<= B_2 0))) (or (or (and (and (not .loc.10) (and (and (= F_1 .x.9) (and (= D_1 .x.7) .def_35)) .loc.11)) (or (and .def_26 (and .loc.6 (and (= L_1 0) (and (= G_1 .x.10) (and (= B_2 .x.6) .def_48))))) (and (= .y.5 .x.10) (and (and (or (not (<= L_2 0)) .def_57) (and (or .def_59 .def_61) (and (= (+ E_1 (+ G_1 (* (- 1) L_2))) 0) (and (= (+ A_2 (+ G_1 (* (- 1) J_2))) 0) (and (not .def_59) (and (and (not (<= .y.5 G_1)) (and (= (+ G_1 (* (- 1) L_1)) (- 1)) (and (and .loc.7 .def_25) (= (select D_1 J_2) (select F_1 L_2))))) .def_86)))))) .def_93)))) (and (not (<= .x.8 0)) (and (not (<= .y.8 0)) (and (not (<= L_1 0)) (and (= .y.9 0) (and (and .def_93 (and .def_25 (and .def_26 .loc.10))) .def_110)))))) (and (= G_1 L_1) (and (= B_2 .y.8) (and (or .def_61 .def_119) (and (or .def_57 (not (<= O_0 0))) (and (= (+ C_1 (+ E_1 (* (- 1) O_0))) 0) (and (= (+ B_2 (+ C_1 (* (- 1) J_2))) 0) (and (not .def_119) (and (= (+ C_1 (* (- 1) .y.9)) (- 1)) (and (= .x.7 (store D_1 J_2 L_2)) (and (= .x.9 (store F_1 O_0 L_2)) (and .def_110 (and .def_93 (and .def_86 (and .loc.10 (and .def_26 (and .loc.6 (and .def_35 (not .def_48))))))))))))))))))))))))))))))) (state |.x.6| |.y.8| |.y.9| |.x.7| |.x.8| |.x.9| |L_1| |.x.10| |.loc.10| |.loc.11| |.xtv.1| |.xtv.2| |.xtv.3| |.xpv.1| |.xpv.2|))))
(assert (forall ((|A_2| Int) (|B_2| Int) (|C_1| Int) (|D_1| (Array Int Int)) (|E_1| Int) (|F_1| (Array Int Int)) (|G_1| Int) (|.y.5| Int) (|.loc.6| Bool) (|.loc.7| Bool) (|L_2| Int) (|O_0| Int) (|J_2| Int) (|J_3| Int) (|L_3| Int) (|.loc.10| Bool) (|.x.9| (Array Int Int)) (|.x.7| (Array Int Int)) (|.x.8| Int) (|.loc.11| Bool) (|L_1| Int) (|.x.10| Int) (|.x.6| Int) (|.y.8| Int) (|.y.9| Int) (|.xtv.1| Int) (|.xtv.2| Int) (|.xtv.3| Int) (|.xpv.1| Int) (|.xpv.2| Int)) (=> (state |A_2| |B_2| |C_1| |D_1| |E_1| |F_1| |G_1| |.y.5| |.loc.6| |.loc.7| |L_2| |O_0| |J_2| |J_3| |L_3|) (let ((.def_57 (<= E_1 0))) (let ((.def_59 (<= A_2 0))) (not (and (and .loc.7 (not .loc.6)) (and (and (and (not (= (select D_1 J_3) (select F_1 L_3))) (and (and (and (not .def_57) (and (not .def_59) (not (<= .y.5 G_1)))) (= (+ A_2 (+ G_1 (* (- 1) J_3))) 0)) (= (+ E_1 (+ G_1 (* (- 1) L_3))) 0))) (or .def_57 (not (<= L_3 0)))) (or .def_59 (not (<= J_3 0)))))))))))
(check-sat)
